
Gurobi 12.0.2 (win64) logging started Sun Jun  8 11:32:00 2025

Set parameter LogFile to value "C:\Ioana\_uni\honours\slp\algorithm\Main_files\results\others\prox_tubules_new_model\Task_001_Sample002_irr_gurobi.log"
Gurobi Optimizer version 12.0.2 build v12.0.2rc0 (win64 - Windows 11.0 (26100.2))

CPU model: Intel(R) Core(TM) Ultra 5 125H, instruction set [SSE2|AVX|AVX2]
Thread count: 14 physical cores, 18 logical processors, using up to 18 threads

Non-default parameters:
TimeLimit  2200

Optimize a model with 47226 rows, 34496 columns and 146683 nonzeros
Model fingerprint: 0x6742112c
Variable types: 17251 continuous, 17245 integer (17245 binary)
Coefficient statistics:
  Matrix range     [1e-04, 8e+04]
  Objective range  [1e-04, 9e-01]
  Bounds range     [1e+00, 1e+03]
  RHS range        [1e+00, 1e+00]
Presolve removed 30826 rows and 21543 columns
Presolve time: 0.32s
Presolved: 16400 rows, 12953 columns, 54573 nonzeros
Variable types: 6410 continuous, 6543 integer (6543 binary)

Root relaxation: objective 3.023447e-04, 4408 iterations, 0.38 seconds (0.77 work units)

    Nodes    |    Current Node    |     Objective Bounds      |     Work
 Expl Unexpl |  Obj  Depth IntInf | Incumbent    BestBd   Gap | It/Node Time

     0     0    0.00030    0   14          -    0.00030      -     -    0s
H    0     0                       0.1843602    0.00030   100%     -    0s
H    0     0                       0.1383397    0.00030   100%     -    0s
     0     0    0.00540    0   20    0.13834    0.00540  96.1%     -    0s
     0     0    0.04479    0    7    0.13834    0.04479  67.6%     -    1s
     0     0    0.06914    0   14    0.13834    0.06914  50.0%     -    1s
     0     0    0.07430    0   12    0.13834    0.07430  46.3%     -    1s
     0     0    0.07524    0   14    0.13834    0.07524  45.6%     -    1s
     0     0    0.09911    0   29    0.13834    0.09911  28.4%     -    1s
     0     0    0.10590    0    1    0.13834    0.10590  23.5%     -    1s

Cutting planes:
  Clique: 2
  MIR: 2
  Flow cover: 3
  Relax-and-lift: 1

Explored 1 nodes (4732 simplex iterations) in 1.12 seconds (1.42 work units)
Thread count was 18 (of 18 available processors)

Solution count 3: 0.13834 0.13834 0.18436 

Optimal solution found (tolerance 1.00e-04)
Best objective 1.383396805179e-01, best bound 1.383396805179e-01, gap 0.0000%
